language ESSENCE' 1.0
$ minion Nodes: 1
$ minion TotalTime: 0.00057
$ Savile Row TotalTime: 0.284
letting pain_tuple1 be [5, 5;int(1..2)]
letting pain_tuple2 be [8, 8;int(1..2)]
letting pain_tuple3 be [9, 9;int(1..2)]
